SAT
-1 -100 -99 -98 -97 -53 96 94 -15 -54 -85 -84 -64 75 -20 -29 -26 -95 62 72 -2 -83 38 -6 -68 92 7 -74 -13 19 55 -40 5 -39 -48 61 -4 46 73 -34 91 -49 43 33 65 82 42 -90 -69 -67 30 -37 -88 -27 36 -3 -81 -59 41 89 16 17 -11 -57 -23 -25 63 77 -71 93 58 79 32 78 10 -22 -80 52 47 24 31 -28 -70 -8 12 -21 50 -60 66 -76 -14 9 -56 -18 -86 -45 -87 -44 -51 35 0
